79 79
15 55
30 43
6 70
8 72
5 53
9 37
2 17
36 31
36 47
27 69
31 76
20 25
35 35
18 30
1 28
24 4
19 68
28 6
7 36
5 65
21 52
18 12
12 49
4 62
3 57
21 45
26 51
15 5
10 1
8 67
17 74
20 46
13 75
25 26
39 42
28 40
14 48
29 56
37 20
9 2
24 10
35 8
39 13
6 21
25 11
22 61
38 58
16 71
7 7
37 79
14 34
29 41
23 29
10 16
32 44
22 3
33 22
23 38
11 50
1 33
2 78
13 54
30 19
19 64
12 18
11 63
31 77
16 66
17 23
27 15
3 39
1 9
34 24
38 27
34 60
4 14
33 32
26 59
32 73
